letting presetvals be [
    [-1,-1,-1,-2,-1,-1,-1],
    [ 2,-2,-1, 6,-1,-2, 8],
    [-1,-2,-1,-2,-1,-2,-1],
    [-1,-1, 0,-2,-1,-1,-1],
    [-2, 1,-2,-2,-2, 8,-2],
    [-1,-1,-1,-2,-1,-1,-1],
    [ 3,-2, 8, 2,-1,-2,-1],
    [-1,-2,-1,-2, 2,-2,-1],
    [-1,-1,-1,-2,-1,-1, 8]
]
letting op be [3,2,3,1,3,3,1,2,3,2,2,1,3,3,1,3,3,1,1,3]
